40
2 0 6
3 0 1
4 0 9
4 1 2
5 2 9
5 4 4
6 0 2
6 1 3
6 2 5
7 1 3
7 2 1
7 4 7
8 0 1
8 2 6
8 3 9
8 4 9
8 6 7
8 7 6
9 0 5
9 4 1
9 5 5
9 6 8
9 7 1
10 1 4
10 4 1
10 8 9
10 9 2
11 0 2
11 1 6
11 3 9
11 4 7
11 7 8
11 8 5
11 10 6
12 1 3
12 2 1
12 4 3
12 5 2
12 6 2
12 7 6
12 8 1
12 10 2
13 0 5
13 1 5
13 2 1
13 5 6
13 7 9
13 8 4
13 9 9
13 12 6
14 1 5
14 3 3
14 5 5
14 7 5
14 8 4
14 9 5
14 10 7
14 11 4
14 12 7
14 13 7
15 1 4
15 9 1
15 14 9
16 4 1
16 5 6
16 6 8
16 9 3
16 10 2
16 12 6
16 13 7
16 15 9
17 2 9
17 6 4
17 9 9
17 11 6
17 12 9
17 16 2
18 1 7
18 4 7
18 6 6
18 7 4
18 8 7
18 10 5
18 11 9
18 12 8
18 13 2
18 14 3
18 17 3
19 1 7
19 3 2
19 5 6
19 6 1
19 9 7
19 12 7
19 15 7
20 0 3
20 3 8
20 5 2
20 6 2
20 8 5
20 9 6
20 10 2
20 12 3
20 15 9
20 18 3
21 1 3
21 2 7
21 3 2
21 4 3
21 5 5
21 6 3
21 8 5
21 10 1
21 13 2
21 16 9
21 17 4
22 0 1
22 3 3
22 7 1
22 8 8
22 9 2
22 10 1
22 11 7
22 13 7
22 14 7
22 15 3
23 1 6
23 3 9
23 11 4
23 12 6
23 13 3
23 14 4
23 19 4
24 0 3
24 1 5
24 2 5
24 3 5
24 10 1
24 12 7
24 14 1
24 15 1
24 16 4
24 17 6
24 18 7
24 19 5
24 21 2
24 23 6
25 0 3
25 1 5
25 2 7
25 4 7
25 9 7
25 10 8
25 11 1
25 13 7
25 15 7
25 17 2
25 21 8
25 22 5
25 23 5
26 0 6
26 2 7
26 4 1
26 5 2
26 6 5
26 7 2
26 8 8
26 10 5
26 11 2
26 12 9
26 13 5
26 14 8
26 17 2
26 19 6
26 20 9
26 22 7
27 0 8
27 4 5
27 6 8
27 9 5
27 13 4
27 16 8
27 18 9
27 23 8
27 24 5
27 25 7
28 2 7
28 5 1
28 6 4
28 7 9
28 11 3
28 14 3
28 16 5
28 17 4
28 20 3
28 21 9
28 24 9
28 27 1
29 3 5
29 4 7
29 5 9
29 8 6
29 9 1
29 12 8
29 13 4
29 14 1
29 17 1
29 18 7
29 20 4
29 21 7
29 22 5
29 23 5
29 25 3
29 26 6
29 27 4
30 1 3
30 4 3
30 5 1
30 8 4
30 10 6
30 11 6
30 12 5
30 15 2
30 18 6
30 19 6
30 21 9
30 25 5
30 26 2
30 28 8
31 0 7
31 1 9
31 9 3
31 12 5
31 13 8
31 15 8
31 18 5
31 19 7
31 20 9
31 21 1
31 22 5
31 24 1
31 26 6
31 28 8
31 29 1
32 0 4
32 1 9
32 2 1
32 6 3
32 10 5
32 11 9
32 12 6
32 15 2
32 16 9
32 17 6
32 18 3
32 19 4
32 20 2
32 22 7
32 25 9
32 27 8
32 29 9
32 30 2
32 31 1
33 0 1
33 1 1
33 4 3
33 5 3
33 6 1
33 7 5
33 8 5
33 10 4
33 11 1
33 12 4
33 13 5
33 15 3
33 16 8
33 22 9
33 23 6
33 24 2
33 26 2
33 28 5
33 29 7
33 30 4
34 0 7
34 1 6
34 2 1
34 6 1
34 7 4
34 8 9
34 9 1
34 11 7
34 15 9
34 16 9
34 20 1
34 23 6
34 24 8
34 25 6
34 30 9
34 32 9
35 0 9
35 1 3
35 3 6
35 6 3
35 7 6
35 8 2
35 9 4
35 12 9
35 14 7
35 15 2
35 17 5
35 24 4
35 26 8
35 28 2
35 29 5
35 32 7
35 33 5
36 0 1
36 3 3
36 11 8
36 13 7
36 16 4
36 17 6
36 18 6
36 22 2
36 23 6
36 24 2
36 25 2
36 26 1
36 27 5
36 28 5
36 30 5
36 31 1
37 1 3
37 2 8
37 3 9
37 8 4
37 9 4
37 11 5
37 13 2
37 14 6
37 16 9
37 17 2
37 19 8
37 22 6
37 23 1
37 25 6
37 29 2
37 30 3
37 31 2
37 32 8
37 34 2
38 0 7
38 4 6
38 5 1
38 6 5
38 7 3
38 10 6
38 14 3
38 17 2
38 27 6
38 29 3
38 30 8
38 31 5
38 33 3
38 35 9
38 37 8
39 0 8
39 3 1
39 4 6
39 5 3
39 11 5
39 15 6
39 17 6
39 19 7
39 20 7
39 22 1
39 25 4
39 26 5
39 27 7
39 28 4
39 31 6
39 33 3
39 34 2
39 35 8
39 38 4
